NAME: CMT5_4
TYPE: CVRP
COMMENT: 1291.29 - Cluster Nr.4
DIMENSION: 12
CAPACITY: 200
EDGE_WEIGHT_TYPE: EUC_2D
NODE_COORD_TYPE: TWOD_COORDS
NODE_COORD_SECTION: 
10 7 43
7 12 42
11 21 36
1 17 34
6 20 40
9 7 38
5 12 38
3 10 43
12 17 33
4 14 37
8 6 38
2 35 35
DEPOT_SECTION: 
2
-1
DEMAND_SECTION: 
5 5
11 19
1 3
9 28
6 12
3 9
8 16
4 11
10 27
7 21
2 0
12 41
EOF
